webassembly/ejemplos_dzn/4/folder4_json_85.dzn
TERM = { '.', 'in_1', 'local_1', 'in_2', 'in_4', 'in_3', 's(1)', 's(0)', 'in_0'};
null = '.';
s = 4;
n = 10;
ndeps = 0;
max_registers_sz = 3;
NR = 0;
registers = [| |];
dependencies = [| |];
GET_ENUM = { GET1, GET2, GET3};
SET_ENUM = { SET1, SET2, SET3};
TEE_ENUM = { TEE1, TEE2, TEE3};
N = 4;
OP = { 'i32.add_0', 'i32.add_1', 'i32.store8_0', 'local.get_0' };
in_ops = [2, 2, 2, 0 ];
out_ops = [1, 1, 0, 1 ];
in1 = ['in_2', 's(0)', 'in_0', '.' ];
in2 = ['in_3', 'in_4', 'in_1', '.' ];
in3 = ['.', '.', '.', '.' ];
out1 = ['s(0)', 's(1)', '.', 'local_1' ];
out2 = ['.', '.', '.', '.' ];
out3 = ['.', '.', '.', '.' ];
comm = [true, true, false, false ];
gas = [1, 1, 1, 1 ];
sz = [1, 1, 1, 1 ];
stor = [false, false, true, false ];
lb = [ 1, 1, 1, 1 ];
ub = [ 4, 4, 4, 4 ];
startstack = [ 'in_0', 'in_1', 'in_2', 'in_3', 'in_4', null, null, null, null, null ];
endstack = [ 'local_1', 's(1)', null, null, null, null, null, null, null, null ];
